(declare-fun var0 () String)
(assert (RegexIn var0 (RegexConcat (RegexUnion (RegexUnion (Str2Reg "WW") (Str2Reg "XXX")) (RegexStar (Str2Reg "YYY"))) (RegexConcat (RegexUnion (RegexPlus (Str2Reg "UU")) (RegexPlus (Str2Reg "VV"))) (RegexConcat (RegexUnion (RegexUnion (Str2Reg "R") (Str2Reg "S")) (RegexStar (Str2Reg "T"))) (RegexConcat (RegexUnion (RegexUnion (Str2Reg "NNN") (Str2Reg "O")) (RegexUnion (Str2Reg "PP") (Str2Reg "QQQ"))) (RegexConcat (RegexPlus (RegexUnion (Str2Reg "LL") (Str2Reg "MMM"))) (RegexConcat (RegexUnion (RegexPlus (Str2Reg "J")) (RegexStar (Str2Reg "KKK"))) (RegexConcat (RegexStar (RegexStar (Str2Reg "III"))) (RegexConcat (RegexUnion (RegexPlus (Str2Reg "G")) (RegexStar (Str2Reg "H"))) (RegexConcat (RegexUnion (RegexUnion (Str2Reg "DD") (Str2Reg "EE")) (RegexStar (Str2Reg "F"))) (RegexConcat (RegexStar (RegexPlus (Str2Reg "CCC"))) (RegexConcat (RegexPlus (RegexPlus (Str2Reg "BB"))) (RegexConcat (RegexPlus (RegexStar (Str2Reg "A"))) (RegexConcat (RegexStar (RegexPlus (Str2Reg "z"))) (RegexConcat (RegexUnion (RegexUnion (Str2Reg "vvv") (Str2Reg "ww")) (RegexUnion (Str2Reg "x") (Str2Reg "yyy"))) (RegexConcat (RegexPlus (RegexStar (Str2Reg "uuu"))) (RegexConcat (RegexStar (RegexUnion (Str2Reg "sss") (Str2Reg "t"))) (RegexConcat (RegexStar (RegexStar (Str2Reg "rr"))) (RegexConcat (RegexUnion (RegexStar (Str2Reg "pp")) (RegexPlus (Str2Reg "qqq"))) (RegexConcat (RegexPlus (RegexUnion (Str2Reg "nn") (Str2Reg "oo"))) (RegexConcat (RegexStar (RegexStar (Str2Reg "m"))) (RegexConcat (RegexStar (RegexStar (Str2Reg "l"))) (RegexConcat (RegexPlus (RegexUnion (Str2Reg "j") (Str2Reg "kkk"))) (RegexConcat (RegexPlus (RegexStar (Str2Reg "i"))) (RegexConcat (RegexPlus (RegexPlus (Str2Reg "h"))) (RegexConcat (RegexStar (RegexStar (Str2Reg "g"))) (RegexConcat (RegexUnion (RegexPlus (Str2Reg "eee")) (RegexStar (Str2Reg "fff"))) (RegexConcat (RegexPlus (RegexStar (Str2Reg "d"))) (RegexConcat (RegexStar (RegexUnion (Str2Reg "bb") (Str2Reg "c"))) (RegexConcat (RegexUnion (RegexStar (Str2Reg "88")) (RegexUnion (Str2Reg "99") (Str2Reg "aa"))) (RegexConcat (RegexStar (RegexUnion (Str2Reg "666") (Str2Reg "7"))) (RegexConcat (RegexUnion (RegexPlus (Str2Reg "333")) (RegexUnion (Str2Reg "44") (Str2Reg "555"))) (RegexConcat (RegexStar (RegexPlus (Str2Reg "22"))) (RegexConcat (RegexUnion (RegexUnion (Str2Reg "}}") (Str2Reg "~")) (RegexUnion (Str2Reg "0") (Str2Reg "111"))) (RegexConcat (RegexUnion (RegexUnion (Str2Reg "_") (Str2Reg "`")) (RegexUnion (Str2Reg "{{{") (Str2Reg "||"))) (RegexConcat (RegexPlus (RegexStar (Str2Reg "^"))) (RegexConcat (RegexUnion (RegexUnion (Str2Reg "[[[") (Str2Reg "\\\\\\")) (RegexPlus (Str2Reg "]]]"))) (RegexConcat (RegexUnion (RegexUnion (Str2Reg ">") (Str2Reg "?")) (RegexStar (Str2Reg "@@"))) (RegexConcat (RegexPlus (RegexPlus (Str2Reg "=="))) (RegexConcat (RegexUnion (RegexPlus (Str2Reg ":")) (RegexUnion (Str2Reg ";;") (Str2Reg "<<<"))) (RegexConcat (RegexUnion (RegexStar (Str2Reg "--")) (RegexUnion (Str2Reg "..") (Str2Reg "/"))) (RegexConcat (RegexStar (RegexStar (Str2Reg ",,,"))) (RegexConcat (RegexPlus (RegexPlus (Str2Reg "+++"))) (RegexConcat (RegexUnion (RegexUnion (Str2Reg "'") (Str2Reg "((")) (RegexUnion (Str2Reg ")))") (Str2Reg "**"))) (RegexConcat (RegexPlus (RegexStar (Str2Reg "&&&"))) (RegexConcat (RegexPlus (RegexPlus (Str2Reg "%%%"))) (RegexConcat (RegexPlus (RegexUnion (Str2Reg "#") (Str2Reg "$"))) (RegexConcat (RegexPlus (RegexStar (Str2Reg "\"\""))) (RegexConcat (RegexPlus (RegexPlus (Str2Reg "!!!"))) (RegexConcat (RegexPlus (RegexUnion (Str2Reg "YY") (Str2Reg "ZZ"))) (RegexConcat (RegexStar (RegexPlus (Str2Reg "X"))) (RegexConcat (RegexUnion (RegexStar (Str2Reg "VVV")) (RegexStar (Str2Reg "WW"))) (RegexConcat (RegexUnion (RegexUnion (Str2Reg "SSS") (Str2Reg "TT")) (RegexPlus (Str2Reg "UUU"))) (RegexConcat (RegexPlus (RegexPlus (Str2Reg "RR"))) (RegexConcat (RegexStar (RegexUnion (Str2Reg "P") (Str2Reg "QQQ"))) (RegexConcat (RegexStar (RegexStar (Str2Reg "OO"))) (RegexConcat (RegexUnion (RegexPlus (Str2Reg "M")) (RegexPlus (Str2Reg "NN"))) (RegexConcat (RegexUnion (RegexUnion (Str2Reg "II") (Str2Reg "JJJ")) (RegexUnion (Str2Reg "K") (Str2Reg "LLL"))) (RegexConcat (RegexStar (RegexUnion (Str2Reg "GG") (Str2Reg "H"))) (RegexConcat (RegexPlus (RegexUnion (Str2Reg "EEE") (Str2Reg "F"))) (RegexConcat (RegexPlus (RegexStar (Str2Reg "DD"))) (RegexConcat (RegexStar (RegexStar (Str2Reg "CC"))) (RegexConcat (RegexPlus (RegexStar (Str2Reg "BB"))) (RegexConcat (RegexStar (RegexUnion (Str2Reg "z") (Str2Reg "AAA"))) (RegexConcat (RegexUnion (RegexUnion (Str2Reg "vvv") (Str2Reg "ww")) (RegexUnion (Str2Reg "xx") (Str2Reg "y"))) (RegexConcat (RegexStar (RegexUnion (Str2Reg "t") (Str2Reg "u"))) (RegexConcat (RegexUnion (RegexUnion (Str2Reg "q") (Str2Reg "r")) (RegexPlus (Str2Reg "sss"))) (RegexConcat (RegexPlus (RegexUnion (Str2Reg "o") (Str2Reg "pp"))) (RegexConcat (RegexUnion (RegexUnion (Str2Reg "lll") (Str2Reg "m")) (RegexStar (Str2Reg "n"))) (RegexConcat (RegexStar (RegexPlus (Str2Reg "kk"))) (RegexConcat (RegexPlus (RegexUnion (Str2Reg "iii") (Str2Reg "j"))) (RegexConcat (RegexStar (RegexPlus (Str2Reg "h"))) (RegexConcat (RegexStar (RegexStar (Str2Reg "ggg"))) (RegexConcat (RegexUnion (RegexPlus (Str2Reg "eee")) (RegexStar (Str2Reg "f"))) (RegexConcat (RegexPlus (RegexStar (Str2Reg "d"))) (RegexConcat (RegexPlus (RegexPlus (Str2Reg "ccc"))) (RegexConcat (RegexUnion (RegexUnion (Str2Reg "88") (Str2Reg "99")) (RegexUnion (Str2Reg "aa") (Str2Reg "bb"))) (RegexConcat (RegexPlus (RegexPlus (Str2Reg "77"))) (RegexConcat (RegexUnion (RegexPlus (Str2Reg "444")) (RegexUnion (Str2Reg "555") (Str2Reg "6"))) (RegexConcat (RegexStar (RegexUnion (Str2Reg "22") (Str2Reg "33"))) (RegexConcat (RegexPlus (RegexPlus (Str2Reg "111"))) (RegexStar (RegexStar (Str2Reg "0")))))))))))))))))))))))))))))))))))))))))))))))))))))))))))))))))))))))))))))))))))))
(assert (not (RegexIn var0 (RegexConcat (RegexStar (RegexStar (Str2Reg "UU"))) (RegexConcat (RegexUnion (RegexStar (Str2Reg "S")) (RegexStar (Str2Reg "TT"))) (RegexConcat (RegexPlus (RegexPlus (Str2Reg "RR"))) (RegexConcat (RegexUnion (RegexPlus (Str2Reg "P")) (RegexPlus (Str2Reg "QQQ"))) (RegexConcat (RegexPlus (RegexPlus (Str2Reg "OO"))) (RegexConcat (RegexUnion (RegexPlus (Str2Reg "MMM")) (RegexStar (Str2Reg "NNN"))) (RegexConcat (RegexPlus (RegexStar (Str2Reg "LLL"))) (RegexConcat (RegexUnion (RegexStar (Str2Reg "JJJ")) (RegexStar (Str2Reg "KKK"))) (RegexConcat (RegexUnion (RegexStar (Str2Reg "HH")) (RegexStar (Str2Reg "III"))) (RegexConcat (RegexUnion (RegexPlus (Str2Reg "E")) (RegexUnion (Str2Reg "FFF") (Str2Reg "GG"))) (RegexConcat (RegexUnion (RegexPlus (Str2Reg "CCC")) (RegexPlus (Str2Reg "DDD"))) (RegexConcat (RegexPlus (RegexUnion (Str2Reg "A") (Str2Reg "BB"))) (RegexConcat (RegexPlus (RegexPlus (Str2Reg "zzz"))) (RegexConcat (RegexUnion (RegexUnion (Str2Reg "w") (Str2Reg "xxx")) (RegexStar (Str2Reg "yy"))) (RegexConcat (RegexPlus (RegexStar (Str2Reg "v"))) (RegexConcat (RegexStar (RegexPlus (Str2Reg "u"))) (RegexConcat (RegexUnion (RegexPlus (Str2Reg "s")) (RegexPlus (Str2Reg "ttt"))) (RegexConcat (RegexUnion (RegexUnion (Str2Reg "oo") (Str2Reg "p")) (RegexUnion (Str2Reg "q") (Str2Reg "rrr"))) (RegexConcat (RegexUnion (RegexUnion (Str2Reg "ll") (Str2Reg "m")) (RegexStar (Str2Reg "nn"))) (RegexConcat (RegexUnion (RegexStar (Str2Reg "jj")) (RegexPlus (Str2Reg "kkk"))) (RegexConcat (RegexStar (RegexUnion (Str2Reg "hh") (Str2Reg "iii"))) (RegexConcat (RegexPlus (RegexUnion (Str2Reg "ff") (Str2Reg "gg"))) (RegexConcat (RegexStar (RegexStar (Str2Reg "eee"))) (RegexConcat (RegexPlus (RegexPlus (Str2Reg "ddd"))) (RegexConcat (RegexPlus (RegexUnion (Str2Reg "b") (Str2Reg "cc"))) (RegexConcat (RegexPlus (RegexPlus (Str2Reg "aa"))) (RegexConcat (RegexPlus (RegexPlus (Str2Reg "999"))) (RegexConcat (RegexUnion (RegexStar (Str2Reg "666")) (RegexUnion (Str2Reg "7") (Str2Reg "888"))) (RegexConcat (RegexUnion (RegexUnion (Str2Reg "33") (Str2Reg "444")) (RegexPlus (Str2Reg "555"))) (RegexConcat (RegexUnion (RegexPlus (Str2Reg "111")) (RegexStar (Str2Reg "222"))) (RegexConcat (RegexPlus (RegexUnion (Str2Reg "~") (Str2Reg "000"))) (RegexConcat (RegexPlus (RegexUnion (Str2Reg "|") (Str2Reg "}}}"))) (RegexConcat (RegexPlus (RegexPlus (Str2Reg "{{"))) (RegexConcat (RegexUnion (RegexUnion (Str2Reg "]]]") (Str2Reg "^^^")) (RegexUnion (Str2Reg "_") (Str2Reg "``"))) (RegexConcat (RegexPlus (RegexUnion (Str2Reg "[[") (Str2Reg "\\"))) (RegexConcat (RegexUnion (RegexUnion (Str2Reg ">") (Str2Reg "?")) (RegexStar (Str2Reg "@@@"))) (RegexConcat (RegexPlus (RegexStar (Str2Reg "=="))) (RegexConcat (RegexStar (RegexPlus (Str2Reg "<<"))) (RegexConcat (RegexStar (RegexUnion (Str2Reg ":::") (Str2Reg ";;;"))) (RegexConcat (RegexStar (RegexUnion (Str2Reg "..") (Str2Reg "///"))) (RegexConcat (RegexUnion (RegexPlus (Str2Reg "+++")) (RegexUnion (Str2Reg ",,,") (Str2Reg "-"))) (RegexConcat (RegexPlus (RegexUnion (Str2Reg ")") (Str2Reg "**"))) (RegexConcat (RegexUnion (RegexUnion (Str2Reg "&") (Str2Reg "'")) (RegexPlus (Str2Reg "("))) (RegexConcat (RegexPlus (RegexPlus (Str2Reg "%%"))) (RegexConcat (RegexStar (RegexUnion (Str2Reg "#") (Str2Reg "$"))) (RegexConcat (RegexStar (RegexUnion (Str2Reg "!!!") (Str2Reg "\""))) (RegexConcat (RegexStar (RegexPlus (Str2Reg "Z"))) (RegexConcat (RegexUnion (RegexPlus (Str2Reg "WWW")) (RegexUnion (Str2Reg "XXX") (Str2Reg "Y"))) (RegexConcat (RegexUnion (RegexUnion (Str2Reg "TTT") (Str2Reg "UUU")) (RegexStar (Str2Reg "V"))) (RegexConcat (RegexStar (RegexPlus (Str2Reg "SSS"))) (RegexConcat (RegexUnion (RegexUnion (Str2Reg "PP") (Str2Reg "QQ")) (RegexPlus (Str2Reg "R"))) (RegexConcat (RegexPlus (RegexPlus (Str2Reg "O"))) (RegexConcat (RegexPlus (RegexUnion (Str2Reg "MMM") (Str2Reg "NNN"))) (RegexConcat (RegexPlus (RegexPlus (Str2Reg "LLL"))) (RegexConcat (RegexStar (RegexUnion (Str2Reg "JJ") (Str2Reg "KK"))) (RegexConcat (RegexPlus (RegexStar (Str2Reg "III"))) (RegexConcat (RegexUnion (RegexStar (Str2Reg "G")) (RegexStar (Str2Reg "HH"))) (RegexConcat (RegexPlus (RegexStar (Str2Reg "F"))) (RegexConcat (RegexStar (RegexStar (Str2Reg "EE"))) (RegexConcat (RegexUnion (RegexUnion (Str2Reg "AA") (Str2Reg "BB")) (RegexUnion (Str2Reg "C") (Str2Reg "DD"))) (RegexConcat (RegexStar (RegexPlus (Str2Reg "zzz"))) (RegexConcat (RegexUnion (RegexStar (Str2Reg "w")) (RegexUnion (Str2Reg "xx") (Str2Reg "y"))) (RegexConcat (RegexUnion (RegexUnion (Str2Reg "ttt") (Str2Reg "uu")) (RegexStar (Str2Reg "vvv"))) (RegexConcat (RegexStar (RegexPlus (Str2Reg "s"))) (RegexConcat (RegexUnion (RegexPlus (Str2Reg "q")) (RegexPlus (Str2Reg "rrr"))) (RegexConcat (RegexPlus (RegexUnion (Str2Reg "oo") (Str2Reg "p"))) (RegexConcat (RegexUnion (RegexPlus (Str2Reg "mmm")) (RegexPlus (Str2Reg "nnn"))) (RegexConcat (RegexPlus (RegexPlus (Str2Reg "lll"))) (RegexConcat (RegexUnion (RegexStar (Str2Reg "j")) (RegexPlus (Str2Reg "k"))) (RegexConcat (RegexPlus (RegexUnion (Str2Reg "hh") (Str2Reg "iii"))) (RegexConcat (RegexPlus (RegexPlus (Str2Reg "g"))) (RegexConcat (RegexStar (RegexPlus (Str2Reg "ff"))) (RegexConcat (RegexPlus (RegexPlus (Str2Reg "e"))) (RegexConcat (RegexStar (RegexUnion (Str2Reg "ccc") (Str2Reg "dd"))) (RegexConcat (RegexStar (RegexPlus (Str2Reg "bb"))) (RegexConcat (RegexUnion (RegexPlus (Str2Reg "88")) (RegexUnion (Str2Reg "9") (Str2Reg "aaa"))) (RegexConcat (RegexPlus (RegexStar (Str2Reg "7"))) (RegexConcat (RegexStar (RegexStar (Str2Reg "66"))) (RegexConcat (RegexPlus (RegexPlus (Str2Reg "5"))) (RegexConcat (RegexStar (RegexUnion (Str2Reg "33") (Str2Reg "444"))) (RegexUnion (RegexUnion (Str2Reg "000") (Str2Reg "1")) (RegexStar (Str2Reg "2"))))))))))))))))))))))))))))))))))))))))))))))))))))))))))))))))))))))))))))))))))))))
(check-sat)